44840.71,61.65,74.77
48305.87,57.23,69.4
52678.9,52.48,63.64
57905.77,47.74,57.9
43532.13,63.51,77.01
47372.02,58.36,70.77
42222.45,65.48,79.4
47807.77,57.83,70.13
57846.17,47.79,57.96
55854.35,49.5,60.02
51402.03,53.78,65.22
53266.28,51.9,62.94
49007.63,56.41,68.41
46870.42,58.98,71.53
47123.9,58.67,71.14
46637.94,59.28,71.89
44516.82,62.1,75.31
49038.05,56.38,68.37
48108.05,57.47,69.69
47577.12,58.11,70.47
